g9 10 1 0 20 20170706 0 1 0 1	# problem blockEx
 20 20 0 0 20	# vars, constraints, objectives, ranges, eqns
 0 0	# nonlinear constraints, objectives
 0 0	# network constraints: nonlinear, linear
 0 0 0	# nonlinear vars in constraints, objectives, both
 0 0 0 1	# linear network variables; functions; arith, flags
 0 0 0 0 0	# discrete variables: binary, integer, nonlinear (b,c,o)
 58 0	# nonzeros in Jacobian, gradients
 7 5	# max name lengths: constraints, variables
 0 0 0 0 0	# common exprs: b,c,o,c1,o1
S0 20 blockid
0 1
1 2
2 3
3 4
4 5
5 6
6 7
7 8
8 9
9 10
10 11
11 12
12 13
13 14
14 15
15 16
16 17
17 18
18 19
19 20
S1 20 blockid
0 2
1 3
2 4
3 5
4 6
5 7
6 8
7 9
8 10
9 11
10 12
11 13
12 14
13 15
14 16
15 17
16 18
17 19
18 20
19 21
b
0 -1 3
0 -1 3
0 -1 3
0 -1 3
0 -1 3
0 -1 3
0 -1 3
0 -1 3
0 -1 3
0 -1 3
0 -1 3
0 -1 3
0 -1 3
0 -1 3
0 -1 3
0 -1 3
0 -1 3
0 -1 3
0 -1 3
0 -1 3
r
4 11
4 12
4 12
4 12
4 12
4 12
4 12
4 12
4 12
4 12
4 12
4 12
4 12
4 12
4 12
4 12
4 12
4 12
4 12
4 11
C0
n0
C1
n0
C2
n0
C3
n0
C4
n0
C5
n0
C6
n0
C7
n0
C8
n0
C9
n0
C10
n0
C11
n0
C12
n0
C13
n0
C14
n0
C15
n0
C16
n0
C17
n0
C18
n0
C19
n0
k19
2
5
8
11
14
17
20
23
26
29
32
35
38
41
44
47
50
53
56
J0 2
0 10
1 1
J1 3
0 1
1 10
2 1
J2 3
1 1
2 10
3 1
J3 3
2 1
3 10
4 1
J4 3
3 1
4 10
5 1
J5 3
4 1
5 10
6 1
J6 3
5 1
6 10
7 1
J7 3
6 1
7 10
8 1
J8 3
7 1
8 10
9 1
J9 3
8 1
9 10
10 1
J10 3
9 1
10 10
11 1
J11 3
10 1
11 10
12 1
J12 3
11 1
12 10
13 1
J13 3
12 1
13 10
14 1
J14 3
13 1
14 10
15 1
J15 3
14 1
15 10
16 1
J16 3
15 1
16 10
17 1
J17 3
16 1
17 10
18 1
J18 3
17 1
18 10
19 1
J19 2
18 1
19 10
